HUN,8,6,876
2,16,0,87,1,15,5,25,4,21,3,45
0,27,5,55,2,11,1,27,4,59,3,46
4,32,2,56,5,39,0,9,3,76,1,40
1,56,5,5,4,57,2,25,3,71,0,64
2,47,4,27,5,14,3,27,0,80,1,20
5,21,4,92,0,29,2,14,1,43,3,20
3,21,1,94,5,20,0,13,2,13,4,11
0,14,4,85,5,94,1,47,3,7,2,10
